(set-info :source |printed by MathSAT|)
(declare-fun |!{a1.1}| () (Array Int Int))
(declare-fun |!{a1.1}.next| () (Array Int Int))
(declare-fun |!{a2.2}| () (Array Int Int))
(declare-fun |!{a2.2}.next| () (Array Int Int))
(declare-fun |!{a3.3}| () (Array Int Int))
(declare-fun |!{a3.3}.next| () (Array Int Int))
(declare-fun |!{a4.4}| () (Array Int Int))
(declare-fun |!{a4.4}.next| () (Array Int Int))
(declare-fun |!{a5.5}| () (Array Int Int))
(declare-fun |!{a5.5}.next| () (Array Int Int))
(declare-fun |!{a6.6}| () (Array Int Int))
(declare-fun |!{a6.6}.next| () (Array Int Int))
(declare-fun |!{N}| () Int)
(declare-fun |!{N}.next| () Int)
(declare-fun |!{i}| () Int)
(declare-fun |!{i}.next| () Int)
(declare-fun |!{x}| () Int)
(declare-fun |!{x}.next| () Int)
(declare-fun |!pc[0]| () Bool)
(declare-fun |!pc[0].next| () Bool)
(declare-fun |!pc[1]| () Bool)
(declare-fun |!pc[1].next| () Bool)
(declare-fun |!pc[2]| () Bool)
(declare-fun |!pc[2].next| () Bool)
(declare-fun |!pc[3]| () Bool)
(declare-fun |!pc[3].next| () Bool)
(declare-fun |%{x}#1| () Int)
(declare-fun |%{a1.1}#1| () (Array Int Int))
(declare-fun |%{a2.2}#1| () (Array Int Int))
(declare-fun |%{a3.3}#1| () (Array Int Int))
(declare-fun |%{a4.4}#1| () (Array Int Int))
(declare-fun |%{a5.5}#1| () (Array Int Int))
(declare-fun |%{a6.6}#1| () (Array Int Int))
(declare-fun nd<0> () Int)
(declare-fun nd_char<0> () Int)
(define-fun .def_52 () Bool (! |!pc[3]| :next |!pc[3].next|))
(define-fun .def_59 () Bool (not .def_52))
(define-fun .def_50 () Bool (! |!pc[2]| :next |!pc[2].next|))
(define-fun .def_57 () Bool (not .def_50))
(define-fun .def_48 () Bool (! |!pc[1]| :next |!pc[1].next|))
(define-fun .def_55 () Bool (not .def_48))
(define-fun .def_46 () Bool (! |!pc[0]| :next |!pc[0].next|))
(define-fun .def_54 () Bool (not .def_46))
(define-fun .def_56 () Bool (and .def_54 .def_55))
(define-fun .def_58 () Bool (and .def_56 .def_57))
(define-fun .def_60 () Bool (! (and .def_58 .def_59) :init true))
(define-fun .def_199 () Bool (and .def_46 .def_55))
(define-fun .def_299 () Bool (and .def_57 .def_199))
(define-fun .def_300 () Bool (and .def_59 .def_299))
(define-fun .def_161 () Bool (not |!pc[0].next|))
(define-fun .def_93 () Bool (not |!pc[1].next|))
(define-fun .def_168 () Bool (and .def_93 .def_161))
(define-fun .def_95 () Bool (not |!pc[2].next|))
(define-fun .def_264 () Bool (and .def_95 .def_168))
(define-fun .def_265 () Bool (and |!pc[3].next| .def_264))
(define-fun .def_303 () Bool (and .def_265 .def_300))
(define-fun .def_10 () (Array Int Int) (! |!{a2.2}| :next |!{a2.2}.next|))
(define-fun .def_113 () Bool (= .def_10 |!{a2.2}.next|))
(define-fun .def_8 () (Array Int Int) (! |!{a1.1}| :next |!{a1.1}.next|))
(define-fun .def_111 () Bool (= .def_8 |!{a1.1}.next|))
(define-fun .def_130 () Bool (and .def_111 .def_113))
(define-fun .def_12 () (Array Int Int) (! |!{a3.3}| :next |!{a3.3}.next|))
(define-fun .def_115 () Bool (= .def_12 |!{a3.3}.next|))
(define-fun .def_131 () Bool (and .def_115 .def_130))
(define-fun .def_14 () (Array Int Int) (! |!{a4.4}| :next |!{a4.4}.next|))
(define-fun .def_117 () Bool (= .def_14 |!{a4.4}.next|))
(define-fun .def_132 () Bool (and .def_117 .def_131))
(define-fun .def_16 () (Array Int Int) (! |!{a5.5}| :next |!{a5.5}.next|))
(define-fun .def_119 () Bool (= .def_16 |!{a5.5}.next|))
(define-fun .def_133 () Bool (and .def_119 .def_132))
(define-fun .def_18 () (Array Int Int) (! |!{a6.6}| :next |!{a6.6}.next|))
(define-fun .def_121 () Bool (= .def_18 |!{a6.6}.next|))
(define-fun .def_134 () Bool (and .def_121 .def_133))
(define-fun .def_20 () Int (! |!{N}| :next |!{N}.next|))
(define-fun .def_123 () Bool (= .def_20 |!{N}.next|))
(define-fun .def_135 () Bool (and .def_123 .def_134))
(define-fun .def_88 () Bool (= |!{i}.next| 0))
(define-fun .def_219 () Bool (and .def_88 .def_135))
(define-fun .def_24 () Int (! |!{x}| :next |!{x}.next|))
(define-fun .def_127 () Bool (= .def_24 |!{x}.next|))
(define-fun .def_220 () Bool (and .def_127 .def_219))
(define-fun .def_22 () Int (! |!{i}| :next |!{i}.next|))
(define-fun .def_181 () Bool (<= .def_20 .def_22))
(define-fun .def_221 () Bool (and .def_181 .def_220))
(define-fun .def_304 () Bool (and .def_221 .def_303))
(define-fun .def_97 () Bool (not |!pc[3].next|))
(define-fun .def_94 () Bool (and |!pc[0].next| .def_93))
(define-fun .def_96 () Bool (and .def_94 .def_95))
(define-fun .def_98 () Bool (and .def_96 .def_97))
(define-fun .def_301 () Bool (and .def_98 .def_300))
(define-fun .def_288 () (Array Int Int) (store .def_10 .def_22 nd_char<0>))
(define-fun .def_289 () Bool (= |!{a2.2}.next| .def_288))
(define-fun .def_274 () (Array Int Int) (store .def_8 .def_22 nd_char<0>))
(define-fun .def_277 () Bool (= |!{a1.1}.next| .def_274))
(define-fun .def_290 () Bool (and .def_277 .def_289))
(define-fun .def_291 () Bool (and .def_115 .def_290))
(define-fun .def_292 () Bool (and .def_117 .def_291))
(define-fun .def_293 () Bool (and .def_119 .def_292))
(define-fun .def_294 () Bool (and .def_121 .def_293))
(define-fun .def_295 () Bool (and .def_123 .def_294))
(define-fun .def_190 () Int (* (- 1) |!{i}.next|))
(define-fun .def_191 () Int (+ .def_22 .def_190))
(define-fun .def_192 () Bool (= .def_191 (- 1)))
(define-fun .def_296 () Bool (and .def_192 .def_295))
(define-fun .def_297 () Bool (and .def_127 .def_296))
(define-fun .def_182 () Bool (not .def_181))
(define-fun .def_298 () Bool (and .def_182 .def_297))
(define-fun .def_302 () Bool (and .def_298 .def_301))
(define-fun .def_305 () Bool (or .def_302 .def_304))
(define-fun .def_263 () Bool (and .def_52 .def_58))
(define-fun .def_156 () Bool (and |!pc[0].next| |!pc[1].next|))
(define-fun .def_244 () Bool (and |!pc[2].next| .def_156))
(define-fun .def_245 () Bool (and .def_97 .def_244))
(define-fun .def_268 () Bool (and .def_245 .def_263))
(define-fun .def_269 () Bool (and .def_221 .def_268))
(define-fun .def_266 () Bool (and .def_263 .def_265))
(define-fun .def_252 () Int (select .def_10 .def_22))
(define-fun .def_253 () (Array Int Int) (store .def_12 .def_22 .def_252))
(define-fun .def_254 () Bool (= |!{a3.3}.next| .def_253))
(define-fun .def_255 () Bool (and .def_130 .def_254))
(define-fun .def_256 () Bool (and .def_117 .def_255))
(define-fun .def_257 () Bool (and .def_119 .def_256))
(define-fun .def_258 () Bool (and .def_121 .def_257))
(define-fun .def_259 () Bool (and .def_123 .def_258))
(define-fun .def_260 () Bool (and .def_192 .def_259))
(define-fun .def_261 () Bool (and .def_127 .def_260))
(define-fun .def_262 () Bool (and .def_182 .def_261))
(define-fun .def_267 () Bool (and .def_262 .def_266))
(define-fun .def_270 () Bool (or .def_267 .def_269))
(define-fun .def_175 () Bool (and .def_46 .def_48))
(define-fun .def_242 () Bool (and .def_50 .def_175))
(define-fun .def_243 () Bool (and .def_59 .def_242))
(define-fun .def_162 () Bool (and |!pc[1].next| .def_161))
(define-fun .def_224 () Bool (and |!pc[2].next| .def_162))
(define-fun .def_225 () Bool (and .def_97 .def_224))
(define-fun .def_248 () Bool (and .def_225 .def_243))
(define-fun .def_249 () Bool (and .def_221 .def_248))
(define-fun .def_246 () Bool (and .def_243 .def_245))
(define-fun .def_232 () Int (select .def_12 .def_22))
(define-fun .def_233 () (Array Int Int) (store .def_14 .def_22 .def_232))
(define-fun .def_234 () Bool (= |!{a4.4}.next| .def_233))
(define-fun .def_235 () Bool (and .def_131 .def_234))
(define-fun .def_236 () Bool (and .def_119 .def_235))
(define-fun .def_237 () Bool (and .def_121 .def_236))
(define-fun .def_238 () Bool (and .def_123 .def_237))
(define-fun .def_239 () Bool (and .def_192 .def_238))
(define-fun .def_240 () Bool (and .def_127 .def_239))
(define-fun .def_241 () Bool (and .def_182 .def_240))
(define-fun .def_247 () Bool (and .def_241 .def_246))
(define-fun .def_250 () Bool (or .def_247 .def_249))
(define-fun .def_153 () Bool (and .def_48 .def_54))
(define-fun .def_222 () Bool (and .def_50 .def_153))
(define-fun .def_223 () Bool (and .def_59 .def_222))
(define-fun .def_202 () Bool (and |!pc[2].next| .def_94))
(define-fun .def_203 () Bool (and .def_97 .def_202))
(define-fun .def_228 () Bool (and .def_203 .def_223))
(define-fun .def_229 () Bool (and .def_221 .def_228))
(define-fun .def_226 () Bool (and .def_223 .def_225))
(define-fun .def_210 () Int (select .def_14 .def_22))
(define-fun .def_211 () (Array Int Int) (store .def_16 .def_22 .def_210))
(define-fun .def_212 () Bool (= |!{a5.5}.next| .def_211))
(define-fun .def_213 () Bool (and .def_132 .def_212))
(define-fun .def_214 () Bool (and .def_121 .def_213))
(define-fun .def_215 () Bool (and .def_123 .def_214))
(define-fun .def_216 () Bool (and .def_192 .def_215))
(define-fun .def_217 () Bool (and .def_127 .def_216))
(define-fun .def_218 () Bool (and .def_182 .def_217))
(define-fun .def_227 () Bool (and .def_218 .def_226))
(define-fun .def_230 () Bool (or .def_227 .def_229))
(define-fun .def_200 () Bool (and .def_50 .def_199))
(define-fun .def_201 () Bool (and .def_59 .def_200))
(define-fun .def_163 () Bool (and .def_95 .def_162))
(define-fun .def_164 () Bool (and .def_97 .def_163))
(define-fun .def_206 () Bool (and .def_164 .def_201))
(define-fun .def_196 () Bool (= |!{x}.next| 0))
(define-fun .def_125 () Bool (= .def_22 |!{i}.next|))
(define-fun .def_136 () Bool (and .def_125 .def_135))
(define-fun .def_197 () Bool (and .def_136 .def_196))
(define-fun .def_198 () Bool (and .def_181 .def_197))
(define-fun .def_207 () Bool (and .def_198 .def_206))
(define-fun .def_204 () Bool (and .def_201 .def_203))
(define-fun .def_184 () Int (select .def_16 .def_22))
(define-fun .def_185 () (Array Int Int) (store .def_18 .def_22 .def_184))
(define-fun .def_187 () Bool (= |!{a6.6}.next| .def_185))
(define-fun .def_188 () Bool (and .def_133 .def_187))
(define-fun .def_189 () Bool (and .def_123 .def_188))
(define-fun .def_193 () Bool (and .def_189 .def_192))
(define-fun .def_194 () Bool (and .def_127 .def_193))
(define-fun .def_195 () Bool (and .def_182 .def_194))
(define-fun .def_205 () Bool (and .def_195 .def_204))
(define-fun .def_208 () Bool (or .def_205 .def_207))
(define-fun .def_176 () Bool (and .def_57 .def_175))
(define-fun .def_177 () Bool (and .def_59 .def_176))
(define-fun .def_178 () Bool (and .def_164 .def_177))
(define-fun .def_138 () Int (* (- 1) |!{x}.next|))
(define-fun .def_139 () Int (+ .def_24 .def_138))
(define-fun .def_140 () Bool (= .def_139 (- 1)))
(define-fun .def_141 () Bool (and .def_136 .def_140))
(define-fun .def_179 () Bool (and .def_141 .def_178))
(define-fun .def_169 () Bool (and |!pc[2].next| .def_168))
(define-fun .def_170 () Bool (and .def_97 .def_169))
(define-fun .def_154 () Bool (and .def_57 .def_153))
(define-fun .def_155 () Bool (and .def_59 .def_154))
(define-fun .def_171 () Bool (and .def_155 .def_170))
(define-fun .def_101 () Bool (<= .def_20 .def_24))
(define-fun .def_144 () Bool (and .def_101 .def_111))
(define-fun .def_145 () Bool (and .def_113 .def_144))
(define-fun .def_146 () Bool (and .def_115 .def_145))
(define-fun .def_147 () Bool (and .def_117 .def_146))
(define-fun .def_148 () Bool (and .def_119 .def_147))
(define-fun .def_149 () Bool (and .def_121 .def_148))
(define-fun .def_150 () Bool (and .def_123 .def_149))
(define-fun .def_151 () Bool (and .def_125 .def_150))
(define-fun .def_152 () Bool (and .def_127 .def_151))
(define-fun .def_172 () Bool (and .def_152 .def_171))
(define-fun .def_165 () Bool (and .def_155 .def_164))
(define-fun .def_104 () Int (select .def_18 .def_24))
(define-fun .def_103 () Int (select .def_8 .def_24))
(define-fun .def_105 () Bool (= .def_103 .def_104))
(define-fun .def_142 () Bool (and .def_105 .def_141))
(define-fun .def_102 () Bool (not .def_101))
(define-fun .def_143 () Bool (and .def_102 .def_142))
(define-fun .def_166 () Bool (and .def_143 .def_165))
(define-fun .def_157 () Bool (and .def_95 .def_156))
(define-fun .def_158 () Bool (and .def_97 .def_157))
(define-fun .def_159 () Bool (and .def_155 .def_158))
(define-fun .def_106 () Bool (not .def_105))
(define-fun .def_112 () Bool (and .def_106 .def_111))
(define-fun .def_114 () Bool (and .def_112 .def_113))
(define-fun .def_116 () Bool (and .def_114 .def_115))
(define-fun .def_118 () Bool (and .def_116 .def_117))
(define-fun .def_120 () Bool (and .def_118 .def_119))
(define-fun .def_122 () Bool (and .def_120 .def_121))
(define-fun .def_124 () Bool (and .def_122 .def_123))
(define-fun .def_126 () Bool (and .def_124 .def_125))
(define-fun .def_128 () Bool (and .def_126 .def_127))
(define-fun .def_129 () Bool (and .def_102 .def_128))
(define-fun .def_160 () Bool (and .def_129 .def_159))
(define-fun .def_167 () Bool (or .def_160 .def_166))
(define-fun .def_173 () Bool (or .def_167 .def_172))
(define-fun .def_99 () Bool (and .def_60 .def_98))
(define-fun .def_90 () Bool (= |!{x}.next| |%{x}#1|))
(define-fun .def_86 () Bool (= |!{N}.next| nd<0>))
(define-fun .def_84 () Bool (= |!{a6.6}.next| |%{a6.6}#1|))
(define-fun .def_82 () Bool (= |!{a5.5}.next| |%{a5.5}#1|))
(define-fun .def_80 () Bool (= |!{a4.4}.next| |%{a4.4}#1|))
(define-fun .def_78 () Bool (= |!{a3.3}.next| |%{a3.3}#1|))
(define-fun .def_76 () Bool (= |!{a2.2}.next| |%{a2.2}#1|))
(define-fun .def_75 () Bool (= |!{a1.1}.next| |%{a1.1}#1|))
(define-fun .def_77 () Bool (and .def_75 .def_76))
(define-fun .def_79 () Bool (and .def_77 .def_78))
(define-fun .def_81 () Bool (and .def_79 .def_80))
(define-fun .def_83 () Bool (and .def_81 .def_82))
(define-fun .def_85 () Bool (and .def_83 .def_84))
(define-fun .def_87 () Bool (and .def_85 .def_86))
(define-fun .def_89 () Bool (and .def_87 .def_88))
(define-fun .def_91 () Bool (and .def_89 .def_90))
(define-fun .def_73 () Bool (<= nd<0> 0))
(define-fun .def_74 () Bool (not .def_73))
(define-fun .def_92 () Bool (and .def_74 .def_91))
(define-fun .def_100 () Bool (and .def_92 .def_99))
(define-fun .def_174 () Bool (or .def_100 .def_173))
(define-fun .def_180 () Bool (or .def_174 .def_179))
(define-fun .def_209 () Bool (or .def_180 .def_208))
(define-fun .def_231 () Bool (or .def_209 .def_230))
(define-fun .def_251 () Bool (or .def_231 .def_250))
(define-fun .def_271 () Bool (or .def_251 .def_270))
(define-fun .def_306 () Bool (! (or .def_271 .def_305) :trans true))
(define-fun .def_307 () Bool (! (not .def_177) :invar-property 0))
(assert true)
